scip/project/solution/nw04.sol

=obj= 16862.00000000 
x232 1 
x1793 1 
x1981 1 
x7549 1 
x21052 1 
x28515 1 
x53088 1 
x53383 1 
x76918 1 
